(set-logic HORN)

(declare-fun state ((Array Int Int) Int Int (Array Int Int) Bool Bool Bool) Bool)


(assert (forall ((|!{b.2}| (Array Int Int)) (|!{N}| Int) (|!{i}| Int) (|!{a.1}| (Array Int Int)) (|!pc[0]| Bool) (|!pc[1]| Bool) (|!pc[2]| Bool))
  (=>
   (let ((.def_38 (not |!pc[2]|)))
(let ((.def_36 (not |!pc[1]|)))
(let ((.def_35 (not |!pc[0]|)))
(let ((.def_37 (and .def_35 .def_36)))
(let ((.def_39 (and .def_37 .def_38)))
.def_39)))))
   (state |!{b.2}| |!{N}| |!{i}| |!{a.1}| |!pc[0]| |!pc[1]| |!pc[2]|))))

(assert (forall ((|!{b.2}| (Array Int Int)) (|!{N}| Int) (|!{i}| Int) (|!{a.1}| (Array Int Int)) (|!pc[0]| Bool) (|!pc[1]| Bool) (|!pc[2]| Bool)
                 (|!{b.2}.next| (Array Int Int)) (|!{N}.next| Int) (|!{i}.next| Int) (|!{a.1}.next| (Array Int Int)) (|!pc[0].next| Bool) (|!pc[1].next| Bool) (|!pc[2].next| Bool)
                 (|%{a.1}#1| (Array Int Int)) (|%{b.2}#1| (Array Int Int)) (nondet_int<0> Int) (nondet_char<0> Int) (|%{b.2}#2| (Array Int Int)))
  (=>
   (and (state |!{b.2}| |!{N}| |!{i}| |!{a.1}| |!pc[0]| |!pc[1]| |!pc[2]|)
(let ((.def_36 (not |!pc[1]|)))
(let ((.def_162 (and |!pc[0]| .def_36)))
(let ((.def_38 (not |!pc[2]|)))
(let ((.def_163 (and .def_38 .def_162)))
(let ((.def_111 (not |!pc[0].next|)))
(let ((.def_112 (and |!pc[1].next| .def_111)))
(let ((.def_59 (not |!pc[2].next|)))
(let ((.def_113 (and .def_59 .def_112)))
(let ((.def_166 (and .def_113 .def_163)))
(let ((.def_84 (= |!{N}| |!{N}.next|)))
(let ((.def_82 (= |!{b.2}| |!{b.2}.next|)))
(let ((.def_92 (and .def_82 .def_84)))
(let ((.def_52 (= |!{i}.next| 0)))
(let ((.def_159 (and .def_52 .def_92)))
(let ((.def_88 (= |!{a.1}| |!{a.1}.next|)))
(let ((.def_160 (and .def_88 .def_159)))
(let ((.def_63 (<= |!{N}| |!{i}|)))
(let ((.def_161 (and .def_63 .def_160)))
(let ((.def_167 (and .def_161 .def_166)))
(let ((.def_57 (not |!pc[1].next|)))
(let ((.def_58 (and |!pc[0].next| .def_57)))
(let ((.def_60 (and .def_58 .def_59)))
(let ((.def_164 (and .def_60 .def_163)))
(let ((.def_152 (= nondet_char<0> 10)))
(let ((.def_154 (not .def_152)))
(let ((.def_139 (= |!{b.2}| |%{b.2}#2|)))
(let ((.def_155 (and .def_139 .def_154)))
(let ((.def_133 (store |!{b.2}| |!{i}| 20)))
(let ((.def_140 (= .def_133 |%{b.2}#2|)))
(let ((.def_153 (and .def_140 .def_152)))
(let ((.def_156 (or .def_153 .def_155)))
(let ((.def_129 (store |!{a.1}| |!{i}| nondet_char<0>)))
(let ((.def_148 (= |!{a.1}.next| .def_129)))
(let ((.def_145 (= |!{b.2}.next| |%{b.2}#2|)))
(let ((.def_146 (and .def_84 .def_145)))
(let ((.def_94 (* (- 1) |!{i}.next|)))
(let ((.def_95 (+ |!{i}| .def_94)))
(let ((.def_96 (= .def_95 (- 1))))
(let ((.def_147 (and .def_96 .def_146)))
(let ((.def_149 (and .def_147 .def_148)))
(let ((.def_157 (and .def_149 .def_156)))
(let ((.def_64 (not .def_63)))
(let ((.def_158 (and .def_64 .def_157)))
(let ((.def_165 (and .def_158 .def_164)))
(let ((.def_168 (or .def_165 .def_167)))
(let ((.def_123 (and |!pc[0]| |!pc[1]|)))
(let ((.def_124 (and .def_38 .def_123)))
(let ((.def_125 (and .def_113 .def_124)))
(let ((.def_97 (and .def_92 .def_96)))
(let ((.def_98 (and .def_88 .def_97)))
(let ((.def_126 (and .def_98 .def_125)))
(let ((.def_117 (and .def_57 .def_111)))
(let ((.def_118 (and |!pc[2].next| .def_117)))
(let ((.def_35 (not |!pc[0]|)))
(let ((.def_105 (and |!pc[1]| .def_35)))
(let ((.def_106 (and .def_38 .def_105)))
(let ((.def_119 (and .def_106 .def_118)))
(let ((.def_101 (and .def_63 .def_82)))
(let ((.def_102 (and .def_84 .def_101)))
(let ((.def_86 (= |!{i}| |!{i}.next|)))
(let ((.def_103 (and .def_86 .def_102)))
(let ((.def_104 (and .def_88 .def_103)))
(let ((.def_120 (and .def_104 .def_119)))
(let ((.def_114 (and .def_106 .def_113)))
(let ((.def_69 (select |!{b.2}| |!{i}|)))
(let ((.def_71 (= .def_69 20)))
(let ((.def_65 (select |!{a.1}| |!{i}|)))
(let ((.def_67 (= .def_65 10)))
(let ((.def_76 (and .def_67 .def_71)))
(let ((.def_68 (not .def_67)))
(let ((.def_79 (or .def_68 .def_76)))
(let ((.def_99 (and .def_79 .def_98)))
(let ((.def_100 (and .def_64 .def_99)))
(let ((.def_115 (and .def_100 .def_114)))
(let ((.def_107 (and |!pc[0].next| |!pc[1].next|)))
(let ((.def_108 (and .def_59 .def_107)))
(let ((.def_109 (and .def_106 .def_108)))
(let ((.def_72 (not .def_71)))
(let ((.def_83 (and .def_72 .def_82)))
(let ((.def_85 (and .def_83 .def_84)))
(let ((.def_87 (and .def_85 .def_86)))
(let ((.def_89 (and .def_87 .def_88)))
(let ((.def_90 (and .def_67 .def_89)))
(let ((.def_91 (and .def_64 .def_90)))
(let ((.def_110 (and .def_91 .def_109)))
(let ((.def_116 (or .def_110 .def_115)))
(let ((.def_121 (or .def_116 .def_120)))
(let ((.def_37 (and .def_35 .def_36)))
(let ((.def_39 (and .def_37 .def_38)))
(let ((.def_61 (and .def_39 .def_60)))
(let ((.def_54 (= |!{a.1}.next| |%{a.1}#1|)))
(let ((.def_50 (= |!{N}.next| nondet_int<0>)))
(let ((.def_49 (= |!{b.2}.next| |%{b.2}#1|)))
(let ((.def_51 (and .def_49 .def_50)))
(let ((.def_53 (and .def_51 .def_52)))
(let ((.def_55 (and .def_53 .def_54)))
(let ((.def_47 (<= nondet_int<0> 0)))
(let ((.def_48 (not .def_47)))
(let ((.def_56 (and .def_48 .def_55)))
(let ((.def_62 (and .def_56 .def_61)))
(let ((.def_122 (or .def_62 .def_121)))
(let ((.def_127 (or .def_122 .def_126)))
(let ((.def_169 (or .def_127 .def_168)))
.def_169)))))))))))))))))))))))))))))))))))))))))))))))))))))))))))))))))))))))))))))))))))))))))))))))))))))))
   ) (state |!{b.2}.next| |!{N}.next| |!{i}.next| |!{a.1}.next| |!pc[0].next| |!pc[1].next| |!pc[2].next|))))

(assert (forall ((|!{b.2}| (Array Int Int)) (|!{N}| Int) (|!{i}| Int) (|!{a.1}| (Array Int Int)) (|!pc[0]| Bool) (|!pc[1]| Bool) (|!pc[2]| Bool))
  (=> (state |!{b.2}| |!{N}| |!{i}| |!{a.1}| |!pc[0]| |!pc[1]| |!pc[2]|)
(let ((.def_123 (and |!pc[0]| |!pc[1]|)))
(let ((.def_38 (not |!pc[2]|)))
(let ((.def_124 (and .def_38 .def_123)))
(let ((.def_170 (not .def_124)))
.def_170))))
)))

(check-sat)
